NAME : survivors2
COMMENT : survivors2
TYPE : TSP
DIMENSION : 13
EDGE_WEIGHT_TYPE : EUC_2D
NODE_COORD_SECTION
1 0 5
2 10 10
3 10 15
4 -3 15
5 -10 5
6 0 -5
7 0 -15
8 -10 -10
9 -10 -15
10 10 -10
11 20 -5
12 20 -10
13 20 5

